c 
c G(k,n,p) graph
c graph gen seed     : 447
c number of vertices : 60
c max number of edges: 900
c number of classes  : 2
c edge density       : 0.300000
c edge probability   : 0.600000
c data structure     : dense
c
c           Graph Stats
c number of vertices  : 60
c nonisolated vertices: 60
c number of edges     : 503
c edge density        : 0.284181
c max degree          : 29
c avg degree          : 16.77
c min degree          : 6
p col 60 503
e 1 4
e 1 5
e 1 8
e 1 13
e 1 20
e 1 21
e 1 23
e 1 26
e 1 29
e 1 50
e 1 55
e 1 57
e 1 60
e 2 3
e 2 6
e 2 7
e 2 12
e 2 14
e 2 25
e 2 27
e 2 28
e 2 30
e 2 33
e 2 38
e 2 39
e 2 40
e 2 41
e 2 42
e 2 51
e 2 52
e 2 53
e 2 54
e 3 8
e 3 9
e 3 13
e 3 16
e 3 17
e 3 20
e 3 26
e 3 29
e 3 34
e 3 47
e 3 56
e 3 60
e 4 6
e 4 7
e 4 11
e 4 12
e 4 14
e 4 18
e 4 25
e 4 27
e 4 28
e 4 30
e 4 32
e 4 33
e 4 35
e 4 37
e 4 38
e 4 39
e 4 40
e 4 41
e 4 42
e 4 43
e 4 44
e 4 46
e 4 48
e 4 51
e 4 52
e 4 53
e 4 54
e 4 59
e 5 6
e 5 11
e 5 12
e 5 18
e 5 22
e 5 25
e 5 28
e 5 35
e 5 38
e 5 40
e 5 41
e 5 42
e 5 43
e 5 44
e 5 45
e 5 46
e 5 51
e 5 53
e 5 54
e 6 13
e 6 15
e 6 17
e 6 20
e 6 23
e 6 26
e 6 29
e 6 50
e 6 56
e 6 57
e 6 60
e 7 9
e 7 13
e 7 15
e 7 17
e 7 21
e 7 23
e 7 34
e 7 55
e 7 56
e 7 57
e 8 10
e 8 14
e 8 18
e 8 22
e 8 24
e 8 25
e 8 27
e 8 31
e 8 33
e 8 35
e 8 36
e 8 37
e 8 38
e 8 39
e 8 40
e 8 41
e 8 43
e 8 46
e 8 49
e 8 51
e 8 52
e 8 54
e 8 58
e 8 59
e 9 14
e 9 22
e 9 24
e 9 25
e 9 27
e 9 28
e 9 31
e 9 36
e 9 37
e 9 38
e 9 40
e 9 41
e 9 45
e 9 48
e 9 49
e 9 51
e 9 53
e 9 59
e 10 17
e 10 23
e 10 50
e 10 56
e 10 60
e 11 15
e 11 16
e 11 20
e 11 23
e 11 29
e 11 34
e 11 47
e 11 50
e 11 55
e 11 56
e 11 60
e 12 17
e 12 23
e 12 29
e 12 34
e 12 47
e 12 50
e 12 56
e 12 57
e 12 60
e 13 14
e 13 22
e 13 27
e 13 30
e 13 31
e 13 32
e 13 36
e 13 38
e 13 40
e 13 41
e 13 43
e 13 45
e 13 48
e 13 49
e 13 51
e 13 53
e 13 54
e 13 58
e 13 59
e 14 15
e 14 16
e 14 17
e 14 21
e 14 23
e 14 26
e 14 47
e 14 50
e 14 55
e 14 60
e 15 18
e 15 19
e 15 22
e 15 24
e 15 25
e 15 30
e 15 32
e 15 35
e 15 36
e 15 40
e 15 41
e 15 44
e 15 45
e 15 46
e 15 48
e 15 49
e 15 51
e 15 52
e 15 53
e 15 54
e 15 58
e 16 18
e 16 22
e 16 24
e 16 25
e 16 27
e 16 28
e 16 30
e 16 31
e 16 37
e 16 39
e 16 40
e 16 41
e 16 43
e 16 45
e 16 46
e 16 49
e 16 52
e 16 53
e 16 58
e 17 18
e 17 19
e 17 22
e 17 28
e 17 30
e 17 32
e 17 33
e 17 36
e 17 37
e 17 40
e 17 41
e 17 43
e 17 44
e 17 45
e 17 51
e 17 52
e 17 53
e 17 54
e 17 58
e 17 59
e 18 29
e 18 34
e 18 47
e 18 50
e 18 55
e 18 56
e 18 57
e 18 60
e 19 21
e 19 26
e 19 29
e 19 34
e 19 50
e 19 55
e 19 56
e 19 60
e 20 22
e 20 24
e 20 31
e 20 32
e 20 33
e 20 36
e 20 37
e 20 38
e 20 39
e 20 41
e 20 42
e 20 44
e 20 45
e 20 46
e 20 49
e 20 52
e 20 53
e 20 54
e 20 58
e 21 24
e 21 27
e 21 28
e 21 31
e 21 35
e 21 38
e 21 39
e 21 41
e 21 43
e 21 44
e 21 45
e 21 48
e 21 49
e 21 51
e 21 53
e 21 54
e 21 58
e 21 59
e 22 23
e 22 26
e 22 47
e 22 60
e 23 24
e 23 25
e 23 27
e 23 30
e 23 33
e 23 35
e 23 38
e 23 39
e 23 40
e 23 43
e 23 45
e 23 48
e 23 51
e 23 52
e 23 54
e 23 58
e 23 59
e 24 29
e 24 34
e 24 47
e 24 50
e 24 57
e 24 60
e 25 26
e 25 29
e 25 34
e 25 47
e 25 50
e 25 55
e 25 56
e 25 57
e 25 60
e 26 30
e 26 31
e 26 36
e 26 37
e 26 39
e 26 41
e 26 42
e 26 44
e 26 45
e 26 46
e 26 49
e 26 51
e 26 52
e 26 53
e 26 58
e 27 29
e 27 34
e 27 47
e 27 55
e 27 57
e 28 29
e 28 47
e 28 50
e 28 57
e 28 60
e 29 31
e 29 36
e 29 37
e 29 38
e 29 40
e 29 41
e 29 43
e 29 45
e 29 46
e 29 48
e 29 49
e 29 51
e 29 52
e 29 53
e 29 54
e 29 58
e 30 34
e 30 47
e 30 55
e 30 56
e 30 60
e 31 34
e 31 50
e 31 55
e 31 56
e 31 57
e 31 60
e 32 47
e 32 57
e 32 60
e 33 50
e 33 55
e 33 56
e 33 57
e 33 60
e 34 36
e 34 37
e 34 38
e 34 42
e 34 45
e 34 46
e 34 48
e 34 49
e 34 51
e 34 52
e 34 53
e 34 54
e 34 58
e 35 47
e 35 50
e 35 55
e 35 56
e 36 57
e 37 55
e 37 56
e 37 57
e 37 60
e 38 47
e 38 55
e 38 56
e 38 60
e 39 57
e 40 47
e 40 50
e 40 55
e 40 57
e 40 60
e 41 47
e 41 50
e 41 55
e 41 56
e 41 57
e 41 60
e 42 47
e 42 50
e 42 57
e 42 60
e 43 47
e 43 50
e 43 55
e 43 56
e 43 57
e 43 60
e 44 47
e 44 50
e 44 55
e 45 47
e 45 50
e 45 56
e 46 47
e 46 50
e 46 56
e 46 57
e 46 60
e 47 49
e 47 51
e 47 53
e 47 54
e 47 58
e 49 50
e 49 55
e 49 56
e 49 57
e 50 52
e 50 58
e 50 59
e 51 56
e 51 57
e 51 60
e 52 55
e 52 56
e 52 57
e 52 60
e 53 55
e 53 56
e 54 56
e 55 59
e 56 58
e 56 59
e 57 59
e 58 60
